NAME : local_2
TYPE : ATSP
DIMENSION : 37
EDGE_WEIGHT_TYPE : EXPLICIT
EDGE_WEIGHT_FORMAT : FULL_MATRIX
EDGE_WEIGHT_SECTION
0 10000000 10000000 10000000 10000000 10000000 10000000 10000000 10000000 10000000 10000000 10000000 737 10000000 10000000 10000000 10000000 10000000 10000000 10000000 946 745 824 10000000 10000000 631 1040 10000000 735 570 10000000 971 10000000 780 10000000 442 10000000 
0 0 10000000 986 10000000 10000000 10000000 10000000 605 246 1055 10000000 962 610 561 10000000 761 10000000 443 10000000 616 780 764 10000000 10000000 10000000 10000000 10000000 10000000 10000000 10000000 10000000 10000000 10000000 579 10000000 10000000 
0 10000000 0 383 10000000 10000000 10000000 675 10000000 10000000 365 10000000 10000000 964 10000000 10000000 841 10000000 10000000 694 10000000 10000000 10000000 975 10000000 10000000 10000000 10000000 10000000 10000000 10000000 10000000 10000000 10000000 10000000 10000000 10000000 
0 973 383 0 10000000 10000000 10000000 948 10000000 949 144 10000000 10000000 649 720 10000000 525 10000000 10000000 814 10000000 10000000 10000000 10000000 931 10000000 10000000 10000000 10000000 10000000 10000000 10000000 10000000 10000000 715 10000000 10000000 
0 10000000 10000000 10000000 0 10000000 507 10000000 10000000 10000000 10000000 10000000 10000000 10000000 10000000 495 10000000 10000000 10000000 738 10000000 10000000 10000000 494 781 10000000 746 315 930 10000000 315 532 1043 10000000 10000000 10000000 10000000 
0 10000000 10000000 10000000 10000000 0 10000000 532 668 10000000 10000000 700 10000000 10000000 10000000 10000000 10000000 193 10000000 10000000 10000000 10000000 10000000 10000000 10000000 10000000 10000000 10000000 10000000 10000000 10000000 10000000 10000000 934 10000000 10000000 144 
0 10000000 10000000 10000000 507 10000000 0 10000000 10000000 10000000 937 10000000 1050 947 940 787 785 10000000 10000000 800 10000000 10000000 10000000 715 314 10000000 10000000 674 10000000 10000000 806 10000000 684 10000000 966 10000000 10000000 
0 10000000 675 948 10000000 532 10000000 0 946 10000000 947 691 10000000 10000000 10000000 10000000 10000000 537 10000000 820 10000000 10000000 10000000 10000000 10000000 10000000 10000000 10000000 10000000 10000000 10000000 10000000 10000000 10000000 10000000 10000000 620 
0 605 10000000 10000000 10000000 668 10000000 1003 0 716 10000000 971 10000000 10000000 10000000 10000000 10000000 702 426 10000000 558 801 949 10000000 10000000 10000000 10000000 10000000 10000000 10000000 10000000 10000000 10000000 782 10000000 10000000 561 
0 246 10000000 960 10000000 10000000 10000000 10000000 716 0 978 10000000 745 448 369 10000000 593 10000000 418 10000000 527 628 562 10000000 976 925 10000000 10000000 10000000 10000000 10000000 10000000 10000000 10000000 404 10000000 10000000 
0 1029 365 144 10000000 10000000 937 947 10000000 1009 0 10000000 10000000 679 741 10000000 521 10000000 10000000 699 10000000 10000000 10000000 935 849 10000000 10000000 10000000 10000000 10000000 10000000 10000000 10000000 10000000 743 10000000 10000000 
0 10000000 10000000 10000000 10000000 700 10000000 691 957 10000000 10000000 0 10000000 10000000 10000000 612 10000000 517 1069 613 945 1120 10000000 653 10000000 10000000 604 792 776 10000000 967 985 10000000 605 10000000 872 655 
0 962 10000000 10000000 10000000 10000000 1088 10000000 10000000 745 10000000 10000000 0 876 773 10000000 935 10000000 747 10000000 614 398 216 10000000 863 180 10000000 10000000 10000000 301 10000000 10000000 574 899 821 897 10000000 
0 610 964 649 10000000 10000000 947 10000000 10000000 448 679 10000000 876 0 230 10000000 212 10000000 847 10000000 913 937 783 10000000 728 10000000 10000000 10000000 10000000 10000000 10000000 10000000 865 10000000 73 10000000 10000000 
0 561 10000000 720 10000000 10000000 940 10000000 10000000 369 741 10000000 773 230 0 10000000 276 10000000 757 10000000 813 829 674 10000000 714 932 10000000 10000000 10000000 10000000 10000000 10000000 812 10000000 233 10000000 10000000 
0 10000000 10000000 10000000 495 10000000 787 10000000 10000000 10000000 10000000 612 10000000 10000000 10000000 0 10000000 10000000 10000000 380 10000000 10000000 10000000 121 964 10000000 449 183 719 10000000 434 569 10000000 966 10000000 1002 10000000 
0 761 841 525 10000000 10000000 785 10000000 10000000 593 521 10000000 935 212 276 10000000 0 10000000 1009 962 1074 10000000 864 10000000 546 10000000 10000000 10000000 10000000 10000000 10000000 10000000 851 10000000 271 10000000 10000000 
0 10000000 10000000 10000000 10000000 193 10000000 537 702 10000000 10000000 517 10000000 10000000 10000000 10000000 10000000 0 1020 10000000 10000000 10000000 10000000 10000000 10000000 10000000 10000000 10000000 10000000 10000000 10000000 10000000 10000000 798 10000000 10000000 190 
0 443 10000000 10000000 10000000 10000000 10000000 10000000 426 418 10000000 1068 747 847 757 10000000 968 1025 0 10000000 196 422 532 10000000 10000000 906 10000000 10000000 10000000 10000000 10000000 10000000 10000000 690 804 10000000 893 
0 10000000 694 814 738 10000000 800 820 10000000 10000000 699 613 10000000 10000000 10000000 380 930 10000000 10000000 0 10000000 10000000 10000000 285 901 10000000 778 496 10000000 10000000 791 948 10000000 10000000 10000000 10000000 10000000 
0 616 10000000 10000000 10000000 10000000 10000000 10000000 558 527 10000000 978 614 913 813 10000000 1020 10000000 196 10000000 0 243 413 10000000 10000000 755 10000000 10000000 10000000 848 10000000 10000000 10000000 552 866 840 944 
0 780 10000000 10000000 10000000 10000000 10000000 10000000 801 628 10000000 1106 398 937 829 10000000 10000000 10000000 422 10000000 243 0 239 10000000 10000000 519 10000000 10000000 10000000 607 10000000 10000000 940 578 885 731 10000000 
0 764 10000000 10000000 10000000 10000000 10000000 10000000 949 562 10000000 10000000 216 783 674 10000000 864 10000000 532 10000000 413 239 0 10000000 962 386 10000000 10000000 10000000 500 10000000 10000000 727 793 726 893 10000000 
0 10000000 975 10000000 494 10000000 715 10000000 10000000 10000000 935 653 10000000 10000000 10000000 121 10000000 10000000 10000000 285 10000000 10000000 10000000 0 888 10000000 569 214 836 10000000 506 669 10000000 1034 10000000 10000000 10000000 
0 10000000 10000000 931 781 10000000 314 10000000 10000000 976 849 10000000 863 737 682 964 546 10000000 10000000 901 10000000 10000000 951 888 0 958 10000000 893 10000000 10000000 10000000 10000000 531 10000000 721 10000000 10000000 
0 10000000 10000000 10000000 10000000 10000000 10000000 10000000 10000000 925 10000000 10000000 180 10000000 932 10000000 10000000 10000000 906 10000000 755 519 386 10000000 917 0 10000000 10000000 10000000 125 10000000 10000000 561 956 979 868 10000000 
0 10000000 10000000 10000000 746 10000000 10000000 10000000 10000000 10000000 10000000 604 10000000 10000000 10000000 449 10000000 10000000 10000000 778 10000000 10000000 10000000 569 10000000 10000000 0 516 293 10000000 490 410 10000000 706 10000000 609 10000000 
0 10000000 10000000 10000000 315 10000000 674 10000000 10000000 10000000 10000000 792 10000000 10000000 10000000 183 10000000 10000000 10000000 496 10000000 10000000 10000000 214 893 10000000 516 0 761 10000000 298 488 10000000 10000000 10000000 1046 10000000 
0 10000000 10000000 10000000 930 10000000 10000000 10000000 10000000 10000000 10000000 776 10000000 10000000 10000000 719 10000000 10000000 10000000 10000000 10000000 10000000 10000000 836 10000000 10000000 293 761 0 10000000 661 494 10000000 652 10000000 402 10000000 
0 10000000 10000000 10000000 10000000 10000000 10000000 10000000 10000000 10000000 10000000 10000000 301 10000000 10000000 10000000 10000000 10000000 10000000 10000000 848 607 500 10000000 10000000 125 10000000 10000000 10000000 0 10000000 10000000 614 10000000 10000000 865 10000000 
0 10000000 10000000 10000000 315 10000000 806 10000000 10000000 10000000 10000000 967 10000000 10000000 10000000 434 10000000 10000000 10000000 791 10000000 10000000 10000000 506 10000000 10000000 490 298 661 10000000 0 231 10000000 10000000 10000000 1002 10000000 
0 10000000 10000000 10000000 532 10000000 10000000 10000000 10000000 10000000 10000000 985 10000000 10000000 10000000 569 10000000 10000000 10000000 948 10000000 10000000 10000000 669 10000000 10000000 410 488 494 10000000 231 0 10000000 10000000 10000000 790 10000000 
0 10000000 10000000 10000000 1006 10000000 684 10000000 10000000 10000000 10000000 10000000 574 865 812 10000000 851 10000000 10000000 10000000 10000000 940 727 10000000 606 561 10000000 10000000 10000000 614 10000000 10000000 0 10000000 836 10000000 10000000 
0 10000000 10000000 10000000 10000000 934 10000000 10000000 782 10000000 10000000 605 899 10000000 10000000 960 10000000 798 690 10000000 552 578 793 1021 10000000 956 706 10000000 652 10000000 10000000 10000000 10000000 0 10000000 436 808 
0 579 10000000 715 10000000 10000000 966 10000000 10000000 404 743 10000000 821 73 233 10000000 271 10000000 804 10000000 866 885 726 10000000 721 979 10000000 10000000 10000000 10000000 10000000 10000000 836 10000000 0 10000000 10000000 
0 10000000 10000000 10000000 10000000 10000000 10000000 10000000 10000000 10000000 10000000 872 897 10000000 10000000 983 10000000 10000000 10000000 10000000 840 731 893 10000000 10000000 868 609 1022 402 865 984 790 10000000 436 10000000 0 10000000 
0 10000000 10000000 10000000 10000000 10000000 10000000 10000000 10000000 10000000 10000000 10000000 10000000 10000000 10000000 10000000 10000000 10000000 10000000 10000000 10000000 10000000 10000000 10000000 10000000 10000000 10000000 10000000 10000000 10000000 10000000 10000000 10000000 10000000 10000000 10000000 0 
EOF